100
128
57
36
21
47
60
49
44
17
46
49
8
47
23
43
14
12
6
57
47
16
42
4
57
61
20
47
42
44
44
15
41
29
48
24
33
55
48
58
13
2
48
11
61
30
18
2
37
22
16
54
27
52
1
2
14
41
17
16
23
38
3
18
16
33
33
21
13
35
32
26
50
14
14
2
52
13
47
59
38
14
3
4
50
7
36
42
2
31
29
41
15
2
29
32
30
15
38
14
28
5